NAME : n20w160.001.347.tour
COMMENT : Length = 347
COMMENT : Found by LKH [Keld Helsgaun] Tue May  2 05:46:51 2017
TYPE : TOUR
DIMENSION : 21
TOUR_SECTION
1
14
11
17
20
2
8
7
4
5
6
12
15
3
13
21
16
10
9
19
18
-1
EOF
